
******************************************************************************
This program contains Ipopt, a library for large-scale nonlinear optimization.
 Ipopt is released as open source code under the Eclipse Public License (EPL).
         For more information visit http://projects.coin-or.org/Ipopt
******************************************************************************

This is Ipopt version 3.12.6, running with linear solver ma57.

Number of nonzeros in equality constraint Jacobian...:        4
Number of nonzeros in inequality constraint Jacobian.:        8
Number of nonzeros in Lagrangian Hessian.............:       10

Total number of variables............................:        4
                     variables with only lower bounds:        4
                variables with lower and upper bounds:        0
                     variables with only upper bounds:        0
Total number of equality constraints.................:        1
Total number of inequality constraints...............:        2
        inequality constraints with only lower bounds:        2
   inequality constraints with lower and upper bounds:        0
        inequality constraints with only upper bounds:        0

iter    objective    inf_pr   inf_du lg(mu)  ||d||  lg(rg) alpha_du alpha_pr  ls
   0  1.3080000e+02 3.00e+00 5.90e-01  -1.0 0.00e+00    -  0.00e+00 0.00e+00   0
   1  7.8782624e+01 9.98e-01 2.36e-01  -1.0 4.00e+01    -  9.67e-01 6.67e-01f  1
   2  3.6879120e+01 0.00e+00 1.51e+00  -1.0 4.87e+01    -  5.06e-01 1.00e+00f  1
   3  2.9955743e+01 1.11e-16 7.36e-02  -1.0 1.38e+01    -  1.00e+00 9.87e-01f  1
   4  2.9945313e+01 5.55e-17 3.98e-05  -1.7 8.36e-02    -  1.00e+00 1.00e+00h  1
   5  2.9895752e+01 1.81e-04 1.15e-02  -3.8 5.43e-02    -  9.54e-01 9.93e-01f  1
   6  2.9894810e+01 7.63e-17 9.79e-07  -3.8 2.48e-03    -  1.00e+00 1.00e+00h  1
   7  2.9894384e+01 6.25e-17 3.63e-08  -5.7 5.21e-04    -  1.00e+00 1.00e+00h  1
   8  2.9894378e+01 2.08e-17 6.79e-12  -8.6 7.11e-06    -  1.00e+00 1.00e+00h  1

Number of Iterations....: 8

                                   (scaled)                 (unscaled)
Objective...............:   2.9894378154410990e+01    2.9894378154410990e+01
Dual infeasibility......:   6.7885300203383045e-12    6.7885300203383045e-12
Constraint violation....:   2.0816681711721685e-17    2.0816681711721685e-17
Complementarity.........:   2.5601472118591334e-09    2.5601472118591334e-09
Overall NLP error.......:   2.5601472118591334e-09    2.5601472118591334e-09


Number of objective function evaluations             = 9
Number of objective gradient evaluations             = 9
Number of equality constraint evaluations            = 9
Number of inequality constraint evaluations          = 9
Number of equality constraint Jacobian evaluations   = 9
Number of inequality constraint Jacobian evaluations = 9
Number of Lagrangian Hessian evaluations             = 8
Total CPU secs in IPOPT (w/o function evaluations)   =      0.007
Total CPU secs in NLP function evaluations           =      0.000

EXIT: Optimal Solution Found.
Note: The following floating-point exceptions are signalling: IEEE_INVALID_FLAG IEEE_DIVIDE_BY_ZERO

************************ CUTEst statistics ************************


 Package used            :  IPOPT
 Problem                 :  HS73      
 # variables             =               4
 # constraints           =               3
 # objective functions   =        0.1900000E+02
 # objective gradients   =        0.1000000E+02
 # objective Hessians    =        0.9000000E+01
 # Hessian-vector prdct  =        0.0000000E+00
 # constraints functions =        0.2000000E+02
 # constraints gradients =        0.1100000E+02
 # constraints Hessians  =        0.9000000E+01
 Exit code               =               0
 Final f                 =   0.2989438E+02
 Set up time             =            0.00 seconds
 Solve time              =            0.01 seconds


******************************************************************

System Time =       0.0030000000 s.
